NAME : a280.tsp
TYPE : TOUR
DIMENSION : 280
TOUR_LENGTH : 2841.892946723409
TOUR_SECTION
1
280
2
242
243
244
247
251
250
249
248
278
279
3
4
277
276
275
274
273
272
271
16
17
18
133
132
19
20
131
130
129
154
155
153
156
152
151
177
178
150
149
148
147
146
145
144
143
142
141
140
139
138
137
136
135
134
270
269
268
267
266
265
264
263
262
261
260
259
258
257
256
255
252
254
253
208
209
210
229
230
231
246
245
241
240
239
238
237
232
233
236
235
234
228
227
226
225
224
223
222
221
220
219
218
217
216
215
214
213
212
211
207
206
205
204
203
202
200
201
196
195
194
197
198
199
179
180
176
181
182
183
184
185
187
186
193
192
191
190
189
188
165
164
163
162
161
174
173
171
172
166
167
168
169
170
106
107
105
104
103
102
101
100
99
92
91
90
89
81
80
94
93
98
97
96
95
78
77
79
76
75
74
73
72
71
70
69
68
58
57
59
44
45
56
55
46
47
54
53
52
51
50
49
48
39
40
41
42
43
60
61
62
63
64
67
66
65
86
85
84
83
82
88
87
113
112
109
108
110
111
114
115
116
117
118
175
160
159
158
157
119
120
121
122
123
124
125
126
127
128
21
29
31
30
34
35
38
37
36
33
32
28
27
26
22
25
23
24
14
15
13
12
11
10
8
9
7
6
5
-1
